projet_m2_wvcp/original_wvcp_dzn/r24.clq.dzn
cliques=[{3,5,4,6,8,2,0,7,1},{170,116,181,90,24,10,155,76,1},{131,62,2,117,91,226,37,25,258,77,143,196},{229,119,146,132,3,199,39,158,239,65,27,12,183,103,79,92},{83,56,177,70,45,4,137,107,189,264,252,234,124,206},{209,58,5,72,99,220,110,236,86,191,140,254,266,21,48},{6,165,49,267,210,22,221,100,127,151,192,73,111,87},{193,128,74,101,59,166,178,255,7,222,112},{167,60,129,50,244,141,237,8,152,223,113,268,88,179,256,34},{9,224,51,168,142,61,194,180,89,130,23,114,75,35,153},{9,13,14,20,16,10,22,19,12,18,17,21,15,11},{64,118,26,38,157,213,228,198,145,78,102,182,172,247,11},{229,119,146,132,3,199,39,158,239,65,27,12,183,103,79,92},{41,160,13,201,81,230,214,248,94,261,240},{121,134,148,66,95,174,231,14,215,104,29,54},{9,13,14,20,16,10,22,19,12,18,17,21,15,11},{9,13,14,20,16,10,22,19,12,18,17,21,15,11},{97,204,187,32,122,136,43,68,149,105,262,17,175},{188,205,251,233,106,162,123,176,44,82,263,218,18,69},{9,13,14,20,16,10,22,19,12,18,17,21,15,11},{150,139,208,235,109,243,126,20,71,190,164,85,253,57,98,47},{209,58,5,72,99,220,110,236,86,191,140,254,266,21,48},{9,13,14,20,16,10,22,19,12,18,17,21,15,11},{9,224,51,168,142,61,194,180,89,130,23,114,75,35,153},{32,26,33,30,24,28,29,27,25,31,23,34},{32,26,33,30,24,28,29,27,25,31,23,34},{64,118,26,38,157,213,228,198,145,78,102,182,172,247,11},{229,119,146,132,3,199,39,158,239,65,27,12,183,103,79,92},{147,120,133,200,93,159,184,260,28,80,173,40,53},{121,134,148,66,95,174,231,14,215,104,29,54},{32,26,33,30,24,28,29,27,25,31,23,34},{32,26,33,30,24,28,29,27,25,31,23,34},{97,204,187,32,122,136,43,68,149,105,262,17,175},{32,26,33,30,24,28,29,27,25,31,23,34},{167,60,129,50,244,141,237,8,152,223,113,268,88,179,256,34},{41,36,50,45,38,46,43,39,49,37,44,42,40,47,35,48},{41,36,50,45,38,46,43,39,49,37,44,42,40,47,35,48},{41,36,50,45,38,46,43,39,49,37,44,42,40,47,35,48},{41,36,50,45,38,46,43,39,49,37,44,42,40,47,35,48},{229,119,146,132,3,199,39,158,239,65,27,12,183,103,79,92},{41,36,50,45,38,46,43,39,49,37,44,42,40,47,35,48},{41,36,50,45,38,46,43,39,49,37,44,42,40,47,35,48},{41,36,50,45,38,46,43,39,49,37,44,42,40,47,35,48},{41,36,50,45,38,46,43,39,49,37,44,42,40,47,35,48},{41,36,50,45,38,46,43,39,49,37,44,42,40,47,35,48},{41,36,50,45,38,46,43,39,49,37,44,42,40,47,35,48},{41,36,50,45,38,46,43,39,49,37,44,42,40,47,35,48},{41,36,50,45,38,46,43,39,49,37,44,42,40,47,35,48},{41,36,50,45,38,46,43,39,49,37,44,42,40,47,35,48},{41,36,50,45,38,46,43,39,49,37,44,42,40,47,35,48},{167,60,129,50,244,141,237,8,152,223,113,268,88,179,256,34},{9,224,51,168,142,61,194,180,89,130,23,114,75,35,153},{56,51,60,58,55,59,52,57,53,54},{147,120,133,200,93,159,184,260,28,80,173,40,53},{121,134,148,66,95,174,231,14,215,104,29,54},{56,51,60,58,55,59,52,57,53,54},{83,56,177,70,45,4,137,107,189,264,252,234,124,206},{150,139,208,235,109,243,126,20,71,190,164,85,253,57,98,47},{209,58,5,72,99,220,110,236,86,191,140,254,266,21,48},{193,128,74,101,59,166,178,255,7,222,112},{167,60,129,50,244,141,237,8,152,223,113,268,88,179,256,34},{63,64,66,70,62,74,72,61,67,71,68,65,73,69},{63,64,66,70,62,74,72,61,67,71,68,65,73,69},{63,64,66,70,62,74,72,61,67,71,68,65,73,69},{63,64,66,70,62,74,72,61,67,71,68,65,73,69},{229,119,146,132,3,199,39,158,239,65,27,12,183,103,79,92},{63,64,66,70,62,74,72,61,67,71,68,65,73,69},{63,64,66,70,62,74,72,61,67,71,68,65,73,69},{63,64,66,70,62,74,72,61,67,71,68,65,73,69},{63,64,66,70,62,74,72,61,67,71,68,65,73,69},{63,64,66,70,62,74,72,61,67,71,68,65,73,69},{63,64,66,70,62,74,72,61,67,71,68,65,73,69},{63,64,66,70,62,74,72,61,67,71,68,65,73,69},{63,64,66,70,62,74,72,61,67,71,68,65,73,69},{63,64,66,70,62,74,72,61,67,71,68,65,73,69},{9,224,51,168,142,61,194,180,89,130,23,114,75,35,153},{83,81,88,86,76,78,80,85,82,77,79,75,84,87},{83,81,88,86,76,78,80,85,82,77,79,75,84,87},{64,118,26,38,157,213,228,198,145,78,102,182,172,247,11},{229,119,146,132,3,199,39,158,239,65,27,12,183,103,79,92},{147,120,133,200,93,159,184,260,28,80,173,40,53},{41,160,13,201,81,230,214,248,94,261,240},{188,205,251,233,106,162,123,176,44,82,263,218,18,69},{83,56,177,70,45,4,137,107,189,264,252,234,124,206},{83,81,88,86,76,78,80,85,82,77,79,75,84,87},{150,139,208,235,109,243,126,20,71,190,164,85,253,57,98,47},{209,58,5,72,99,220,110,236,86,191,140,254,266,21,48},{6,165,49,267,210,22,221,100,127,151,192,73,111,87},{167,60,129,50,244,141,237,8,152,223,113,268,88,179,256,34},{9,224,51,168,142,61,194,180,89,130,23,114,75,35,153},{97,95,99,90,96,101,93,89,91,100,94,92,98},{97,95,99,90,96,101,93,89,91,100,94,92,98},{229,119,146,132,3,199,39,158,239,65,27,12,183,103,79,92},{97,95,99,90,96,101,93,89,91,100,94,92,98},{97,95,99,90,96,101,93,89,91,100,94,92,98},{121,134,148,66,95,174,231,14,215,104,29,54},{97,95,99,90,96,101,93,89,91,100,94,92,98},{97,204,187,32,122,136,43,68,149,105,262,17,175},{150,139,208,235,109,243,126,20,71,190,164,85,253,57,98,47},{209,58,5,72,99,220,110,236,86,191,140,254,266,21,48},{97,95,99,90,96,101,93,89,91,100,94,92,98},{97,95,99,90,96,101,93,89,91,100,94,92,98},{64,118,26,38,157,213,228,198,145,78,102,182,172,247,11},{229,119,146,132,3,199,39,158,239,65,27,12,183,103,79,92},{121,134,148,66,95,174,231,14,215,104,29,54},{97,204,187,32,122,136,43,68,149,105,262,17,175},{188,205,251,233,106,162,123,176,44,82,263,218,18,69},{83,56,177,70,45,4,107,137,189,264,252,234,124,206},{106,107,109,113,108,110,104,102,103,105,111,112},{150,139,208,235,109,243,126,20,71,190,164,85,253,57,98,47},{209,58,5,72,99,220,110,236,86,191,140,254,266,21,48},{6,165,49,267,210,22,221,100,127,151,192,73,111,87},{193,128,74,101,59,166,178,255,7,222,112},{167,60,129,50,244,141,237,8,152,223,113,268,88,179,256,34},{121,119,116,120,129,118,128,122,126,117,123,125,127,114,115,124},{121,119,116,120,129,118,128,122,126,117,123,125,127,114,115,124},{121,119,116,120,129,118,128,122,126,117,123,125,127,114,115,124},{121,119,116,120,129,118,128,122,126,117,123,125,127,114,115,124},{121,119,116,120,129,118,128,122,126,117,123,125,127,114,115,124},{121,119,116,120,129,118,128,122,126,117,123,125,127,114,115,124},{121,119,116,120,129,118,128,122,126,117,123,125,127,114,115,124},{121,119,116,120,129,118,128,122,126,117,123,125,127,114,115,124},{121,119,116,120,129,118,128,122,126,117,123,125,127,114,115,124},{121,119,116,120,129,118,128,122,126,117,123,125,127,114,115,124},{121,119,116,120,129,118,128,122,126,117,123,125,127,114,115,124},{121,119,116,120,129,118,128,122,126,117,123,125,127,114,115,124},{121,119,116,120,129,118,128,122,126,117,123,125,127,114,115,124},{121,119,116,120,129,118,128,122,126,117,123,125,127,114,115,124},{121,119,116,120,129,118,128,122,126,117,123,125,127,114,115,124},{121,119,116,120,129,118,128,122,126,117,123,125,127,114,115,124},{9,224,51,168,142,61,194,180,89,130,23,114,75,35,153},{134,131,132,139,141,136,133,137,138,135,130,140},{229,119,146,132,3,199,39,158,239,65,27,12,183,103,79,92},{134,131,132,139,141,136,133,137,138,135,130,140},{121,134,148,66,95,174,231,14,215,104,29,54},{134,131,132,139,141,136,133,137,138,135,130,140},{134,131,132,139,141,136,133,137,138,135,130,140},{83,56,177,70,45,4,137,107,189,264,252,234,124,206},{134,131,132,139,141,136,133,137,138,135,130,140},{150,139,208,235,109,243,126,20,71,190,164,85,253,57,98,47},{134,131,132,139,141,136,133,137,138,135,130,140},{167,60,129,50,244,141,237,8,152,223,113,268,88,179,256,34},{9,224,51,168,142,61,194,180,89,130,23,114,75,35,153},{150,146,147,148,142,152,145,144,149,151,143},{150,146,147,148,142,152,145,144,149,151,143},{64,118,26,38,157,213,228,198,145,78,102,182,172,247,11},{229,119,146,132,3,199,39,158,239,65,27,12,183,103,79,92},{147,120,133,200,93,159,184,260,28,80,173,40,53},{121,134,148,66,95,174,231,14,215,104,29,54},{97,204,187,32,122,136,43,68,149,105,262,17,175},{150,139,208,235,109,243,126,20,71,190,164,85,253,57,98,47},{150,146,147,148,142,152,145,144,149,151,143},{167,60,129,50,244,141,237,8,152,223,113,268,88,179,256,34},{161,160,167,157,162,163,165,158,159,166,155,156,164,154,153},{161,160,167,157,162,163,165,158,159,166,155,156,164,154,153},{161,160,167,157,162,163,165,158,159,166,155,156,164,154,153},{161,160,167,157,162,163,165,158,159,166,155,156,164,154,153},{161,160,167,157,162,163,165,158,159,166,155,156,164,154,153},{229,119,146,132,3,199,39,158,239,65,27,12,183,103,79,92},{161,160,167,157,162,163,165,158,159,166,155,156,164,154,153},{161,160,167,157,162,163,165,158,159,166,155,156,164,154,153},{161,160,167,157,162,163,165,158,159,166,155,156,164,154,153},{161,160,167,157,162,163,165,158,159,166,155,156,164,154,153},{161,160,167,157,162,163,165,158,159,166,155,156,164,154,153},{161,160,167,157,162,163,165,158,159,166,155,156,164,154,153},{161,160,167,157,162,163,165,158,159,166,155,156,164,154,153},{161,160,167,157,162,163,165,158,159,166,155,156,164,154,153},{167,60,129,50,244,141,237,8,152,223,113,268,88,179,256,34},{9,224,51,168,142,61,194,180,89,130,23,114,75,35,153},{170,177,168,174,178,179,173,176,172,171,169,175},{170,177,168,174,178,179,173,176,172,171,169,175},{170,177,168,174,178,179,173,176,172,171,169,175},{64,118,26,38,157,213,228,198,145,78,102,182,172,247,11},{147,120,133,200,93,159,184,260,28,80,173,40,53},{121,134,148,66,95,174,231,14,215,104,29,54},{97,204,187,32,122,136,43,68,149,105,262,17,175},{188,205,251,233,106,162,123,176,44,82,263,218,18,69},{83,56,177,70,45,4,137,107,189,264,252,234,124,206},{170,177,168,174,178,179,173,176,172,171,169,175},{167,60,129,50,244,141,237,8,152,223,113,268,88,179,256,34},{9,224,51,168,142,61,194,180,89,130,23,114,75,35,153},{193,187,186,188,181,185,189,180,184,191,190,182,183,192},{193,187,186,188,181,185,189,180,184,191,190,182,183,192},{229,119,146,132,3,199,39,158,239,65,27,12,183,103,79,92},{193,187,186,188,181,185,189,180,184,191,190,182,183,192},{193,187,186,188,181,185,189,180,184,191,190,182,183,192},{193,187,186,188,181,185,189,180,184,191,190,182,183,192},{193,187,186,188,181,185,189,180,184,191,190,182,183,192},{193,187,186,188,181,185,189,180,184,191,190,182,183,192},{83,56,177,70,45,4,137,107,189,264,252,234,124,206},{150,139,208,235,109,243,126,20,71,190,164,85,253,57,98,47},{193,187,186,188,181,185,189,180,184,191,190,182,183,192},{193,187,186,188,181,185,189,180,184,191,190,182,183,192},{193,187,186,188,181,185,189,180,184,191,190,182,183,192},{204,201,205,209,199,200,208,194,197,210,203,198,195,202,207,196,206},{204,201,205,209,199,200,208,194,197,210,203,198,195,202,207,196,206},{204,201,205,209,199,200,208,194,197,210,203,198,195,202,207,196,206},{204,201,205,209,199,200,208,194,197,210,203,198,195,202,207,196,206},{204,201,205,209,199,200,208,194,197,210,203,198,195,202,207,196,206},{204,201,205,209,199,200,208,194,197,210,203,198,195,202,207,196,206},{204,201,205,209,199,200,208,194,197,210,203,198,195,202,207,196,206},{204,201,205,209,199,200,208,194,197,210,203,198,195,202,207,196,206},{204,201,205,209,199,200,208,194,197,210,203,198,195,202,207,196,206},{204,201,205,209,199,200,208,194,197,210,203,198,195,202,207,196,206},{204,201,205,209,199,200,208,194,197,210,203,198,195,202,207,196,206},{204,201,205,209,199,200,208,194,197,210,203,198,195,202,207,196,206},{204,201,205,209,199,200,208,194,197,210,203,198,195,202,207,196,206},{204,201,205,209,199,200,208,194,197,210,203,198,195,202,207,196,206},{204,201,205,209,199,200,208,194,197,210,203,198,195,202,207,196,206},{204,201,205,209,199,200,208,194,197,210,203,198,195,202,207,196,206},{204,201,205,209,199,200,208,194,197,210,203,198,195,202,207,196,206},{216,213,220,214,223,215,221,211,212,217,219,218,222},{216,213,220,214,223,215,221,211,212,217,219,218,222},{64,118,26,38,157,213,228,198,145,78,102,182,172,247,11},{41,160,13,201,81,230,214,248,94,261,240},{121,134,148,66,95,174,231,14,215,104,29,54},{216,213,220,214,223,215,221,211,212,217,219,218,222},{216,213,220,214,223,215,221,211,212,217,219,218,222},{188,205,251,233,106,162,123,176,44,82,263,218,18,69},{216,213,220,214,223,215,221,211,212,217,219,218,222},{209,58,5,72,99,220,110,236,86,191,140,254,266,21,48},{6,165,49,267,210,22,221,100,127,151,192,73,111,87},{216,213,220,214,223,215,221,211,212,217,219,218,222},{167,60,129,50,244,141,237,8,152,223,113,268,88,179,256,34},{9,224,51,168,142,61,194,180,89,130,23,114,75,35,153},{229,224,230,233,231,237,235,225,228,236,226,227,234,232},{229,224,230,233,231,237,235,225,228,236,226,227,234,232},{229,224,230,233,231,237,235,225,228,236,226,227,234,232},{229,224,230,233,231,237,235,225,228,236,226,227,234,232},{229,119,146,132,3,199,39,158,239,65,27,12,183,103,79,92},{229,224,230,233,231,237,235,225,228,236,226,227,234,232},{229,224,230,233,231,237,235,225,228,236,226,227,234,232},{229,224,230,233,231,237,235,225,228,236,226,227,234,232},{229,224,230,233,231,237,235,225,228,236,226,227,234,232},{83,56,177,70,45,4,137,107,189,264,252,234,124,206},{150,139,208,235,109,243,126,20,71,190,164,85,253,57,98,47},{229,224,230,233,231,237,235,225,228,236,226,227,234,232},{167,60,129,50,244,141,237,8,152,223,113,268,88,179,256,34},{63,259,197,144,156,238,227,246,212,171},{229,119,146,132,3,199,39,158,239,65,27,12,183,103,79,92},{41,160,13,201,81,230,214,248,94,261,240},{216,249,30,185,241,55,202,42,15},{33,46,163,138,108,19,125,265,219,207,242,84},{150,139,208,235,109,243,126,20,71,190,164,85,253,57,98,47},{167,60,129,50,244,141,237,8,152,223,113,268,88,179,256,34},{249,251,250,245,248,255,256,246,252,253,254,247},{249,251,250,245,248,255,256,246,252,253,254,247},{64,118,26,38,157,213,228,198,145,78,102,182,172,247,11},{41,160,13,201,81,230,214,248,94,261,240},{249,251,250,245,248,255,256,246,252,253,254,247},{161,186,250,96,67,203,16,135,31,217,232},{188,205,251,233,106,162,123,176,44,82,263,218,18,69},{83,56,177,70,45,4,137,107,189,264,252,234,124,206},{150,139,208,235,109,243,126,20,71,190,164,85,253,57,98,47},{209,58,5,72,99,220,110,236,86,191,140,254,266,21,48},{249,251,250,245,248,255,256,246,252,253,254,247},{167,60,129,50,244,141,237,8,152,223,113,268,88,179,256,34},{36,245,0,225,195,52,257,211,154,115,169},{131,62,2,117,91,226,37,25,258,77,143,196},{259,267,264,268,260,257,258,265,262,263,266,261},{147,120,133,200,93,159,184,260,28,80,173,40,53},{41,160,13,201,81,230,214,248,94,261,240},{97,204,187,32,122,136,43,68,149,105,262,17,175},{188,205,251,233,106,162,123,176,44,82,263,218,18,69},{83,56,177,70,45,4,137,107,189,264,252,234,124,206},{33,46,163,138,108,19,125,265,219,207,242,84},{209,58,5,72,99,220,110,236,86,191,140,254,266,21,48},{6,165,49,267,210,22,221,100,127,151,192,73,111,87},{167,60,129,50,244,141,237,8,152,223,113,268,88,179,256,34}];
nr_cliques=269;
