projet_m2_wvcp/original_wvcp_dzn/r24.dzn
name="r24";
nr_vertices=269;
nr_edges=3284;
neighborhoods=[{1,2,3,4,5,6,7,8,36,52,115,154,169,195,211,225,245,257},{0,2,3,4,5,6,7,8,10,24,76,90,116,155,170,181},{0,1,3,4,5,6,7,8,25,37,62,77,91,117,131,143,196,226,258},{0,1,2,4,5,6,7,8,12,27,39,65,79,92,103,119,132,146,158,183,199,229,239},{0,1,2,3,5,6,7,8,45,56,70,83,107,124,137,177,189,206,234,252,264},{0,1,2,3,4,6,7,8,21,48,58,72,86,99,110,140,191,209,220,236,254,266},{0,1,2,3,4,5,7,8,22,49,73,87,100,111,127,151,165,192,210,221,267},{0,1,2,3,4,5,6,8,59,74,101,112,128,166,178,193,222,255},{0,1,2,3,4,5,6,7,34,50,60,88,113,129,141,152,167,179,223,237,244,256,268},{10,11,12,13,14,15,16,17,18,19,20,21,22,23,35,51,61,75,89,114,130,142,153,168,180,194,224},{1,9,11,12,13,14,15,16,17,18,19,20,21,22,24,76,90,116,155,170,181},{9,10,12,13,14,15,16,17,18,19,20,21,22,26,38,64,78,102,118,145,157,172,182,198,213,228,247},{3,9,10,11,13,14,15,16,17,18,19,20,21,22,27,39,65,79,92,103,119,132,146,158,183,199,229,239},{9,10,11,12,14,15,16,17,18,19,20,21,22,41,81,94,160,201,214,230,240,248,261},{9,10,11,12,13,15,16,17,18,19,20,21,22,29,54,66,95,104,121,134,148,174,215,231},{9,10,11,12,13,14,16,17,18,19,20,21,22,30,42,55,185,202,216,241,249},{9,10,11,12,13,14,15,17,18,19,20,21,22,31,67,96,135,161,186,203,217,232,250},{9,10,11,12,13,14,15,16,18,19,20,21,22,32,43,68,97,105,122,136,149,175,187,204,262},{9,10,11,12,13,14,15,16,17,19,20,21,22,44,69,82,106,123,162,176,188,205,218,233,251,263},{9,10,11,12,13,14,15,16,17,18,20,21,22,33,46,84,108,125,138,163,207,219,242,265},{9,10,11,12,13,14,15,16,17,18,19,21,22,47,57,71,85,98,109,126,139,150,164,190,208,235,243,253},{5,9,10,11,12,13,14,15,16,17,18,19,20,22,48,58,72,86,99,110,140,191,209,220,236,254,266},{6,9,10,11,12,13,14,15,16,17,18,19,20,21,49,73,87,100,111,127,151,165,192,210,221,267},{9,24,25,26,27,28,29,30,31,32,33,34,35,51,61,75,89,114,130,142,153,168,180,194,224},{1,10,23,25,26,27,28,29,30,31,32,33,34,76,90,116,155,170,181},{2,23,24,26,27,28,29,30,31,32,33,34,37,62,77,91,117,131,143,196,226,258},{11,23,24,25,27,28,29,30,31,32,33,34,38,64,78,102,118,145,157,172,182,198,213,228,247},{3,12,23,24,25,26,28,29,30,31,32,33,34,39,65,79,92,103,119,132,146,158,183,199,229,239},{23,24,25,26,27,29,30,31,32,33,34,40,53,80,93,120,133,147,159,173,184,200,260},{14,23,24,25,26,27,28,30,31,32,33,34,54,66,95,104,121,134,148,174,215,231},{15,23,24,25,26,27,28,29,31,32,33,34,42,55,185,202,216,241,249},{16,23,24,25,26,27,28,29,30,32,33,34,67,96,135,161,186,203,217,232,250},{17,23,24,25,26,27,28,29,30,31,33,34,43,68,97,105,122,136,149,175,187,204,262},{19,23,24,25,26,27,28,29,30,31,32,34,46,84,108,125,138,163,207,219,242,265},{8,23,24,25,26,27,28,29,30,31,32,33,50,60,88,113,129,141,152,167,179,223,237,244,256,268},{9,23,36,37,38,39,40,41,42,43,44,45,46,47,48,49,50,51,61,75,89,114,130,142,153,168,180,194,224},{0,35,37,38,39,40,41,42,43,44,45,46,47,48,49,50,52,115,154,169,195,211,225,245,257},{2,25,35,36,38,39,40,41,42,43,44,45,46,47,48,49,50,62,77,91,117,131,143,196,226,258},{11,26,35,36,37,39,40,41,42,43,44,45,46,47,48,49,50,64,78,102,118,145,157,172,182,198,213,228,247},{3,12,27,35,36,37,38,40,41,42,43,44,45,46,47,48,49,50,65,79,92,103,119,132,146,158,183,199,229,239},{28,35,36,37,38,39,41,42,43,44,45,46,47,48,49,50,53,80,93,120,133,147,159,173,184,200,260},{13,35,36,37,38,39,40,42,43,44,45,46,47,48,49,50,81,94,160,201,214,230,240,248,261},{15,30,35,36,37,38,39,40,41,43,44,45,46,47,48,49,50,55,185,202,216,241,249},{17,32,35,36,37,38,39,40,41,42,44,45,46,47,48,49,50,68,97,105,122,136,149,175,187,204,262},{18,35,36,37,38,39,40,41,42,43,45,46,47,48,49,50,69,82,106,123,162,176,188,205,218,233,251,263},{4,35,36,37,38,39,40,41,42,43,44,46,47,48,49,50,56,70,83,107,124,137,177,189,206,234,252,264},{19,33,35,36,37,38,39,40,41,42,43,44,45,47,48,49,50,84,108,125,138,163,207,219,242,265},{20,35,36,37,38,39,40,41,42,43,44,45,46,48,49,50,57,71,85,98,109,126,139,150,164,190,208,235,243,253},{5,21,35,36,37,38,39,40,41,42,43,44,45,46,47,49,50,58,72,86,99,110,140,191,209,220,236,254,266},{6,22,35,36,37,38,39,40,41,42,43,44,45,46,47,48,50,73,87,100,111,127,151,165,192,210,221,267},{8,34,35,36,37,38,39,40,41,42,43,44,45,46,47,48,49,60,88,113,129,141,152,167,179,223,237,244,256,268},{9,23,35,52,53,54,55,56,57,58,59,60,61,75,89,114,130,142,153,168,180,194,224},{0,36,51,53,54,55,56,57,58,59,60,115,154,169,195,211,225,245,257},{28,40,51,52,54,55,56,57,58,59,60,80,93,120,133,147,159,173,184,200,260},{14,29,51,52,53,55,56,57,58,59,60,66,95,104,121,134,148,174,215,231},{15,30,42,51,52,53,54,56,57,58,59,60,185,202,216,241,249},{4,45,51,52,53,54,55,57,58,59,60,70,83,107,124,137,177,189,206,234,252,264},{20,47,51,52,53,54,55,56,58,59,60,71,85,98,109,126,139,150,164,190,208,235,243,253},{5,21,48,51,52,53,54,55,56,57,59,60,72,86,99,110,140,191,209,220,236,254,266},{7,51,52,53,54,55,56,57,58,60,74,101,112,128,166,178,193,222,255},{8,34,50,51,52,53,54,55,56,57,58,59,88,113,129,141,152,167,179,223,237,244,256,268},{9,23,35,51,62,63,64,65,66,67,68,69,70,71,72,73,74,75,89,114,130,142,153,168,180,194,224},{2,25,37,61,63,64,65,66,67,68,69,70,71,72,73,74,77,91,117,131,143,196,226,258},{61,62,64,65,66,67,68,69,70,71,72,73,74,144,156,171,197,212,227,238,246,259},{11,26,38,61,62,63,65,66,67,68,69,70,71,72,73,74,78,102,118,145,157,172,182,198,213,228,247},{3,12,27,39,61,62,63,64,66,67,68,69,70,71,72,73,74,79,92,103,119,132,146,158,183,199,229,239},{14,29,54,61,62,63,64,65,67,68,69,70,71,72,73,74,95,104,121,134,148,174,215,231},{16,31,61,62,63,64,65,66,68,69,70,71,72,73,74,96,135,161,186,203,217,232,250},{17,32,43,61,62,63,64,65,66,67,69,70,71,72,73,74,97,105,122,136,149,175,187,204,262},{18,44,61,62,63,64,65,66,67,68,70,71,72,73,74,82,106,123,162,176,188,205,218,233,251,263},{4,45,56,61,62,63,64,65,66,67,68,69,71,72,73,74,83,107,124,137,177,189,206,234,252,264},{20,47,57,61,62,63,64,65,66,67,68,69,70,72,73,74,85,98,109,126,139,150,164,190,208,235,243,253},{5,21,48,58,61,62,63,64,65,66,67,68,69,70,71,73,74,86,99,110,140,191,209,220,236,254,266},{6,22,49,61,62,63,64,65,66,67,68,69,70,71,72,74,87,100,111,127,151,165,192,210,221,267},{7,59,61,62,63,64,65,66,67,68,69,70,71,72,73,101,112,128,166,178,193,222,255},{9,23,35,51,61,76,77,78,79,80,81,82,83,84,85,86,87,88,89,114,130,142,153,168,180,194,224},{1,10,24,75,77,78,79,80,81,82,83,84,85,86,87,88,90,116,155,170,181},{2,25,37,62,75,76,78,79,80,81,82,83,84,85,86,87,88,91,117,131,143,196,226,258},{11,26,38,64,75,76,77,79,80,81,82,83,84,85,86,87,88,102,118,145,157,172,182,198,213,228,247},{3,12,27,39,65,75,76,77,78,80,81,82,83,84,85,86,87,88,92,103,119,132,146,158,183,199,229,239},{28,40,53,75,76,77,78,79,81,82,83,84,85,86,87,88,93,120,133,147,159,173,184,200,260},{13,41,75,76,77,78,79,80,82,83,84,85,86,87,88,94,160,201,214,230,240,248,261},{18,44,69,75,76,77,78,79,80,81,83,84,85,86,87,88,106,123,162,176,188,205,218,233,251,263},{4,45,56,70,75,76,77,78,79,80,81,82,84,85,86,87,88,107,124,137,177,189,206,234,252,264},{19,33,46,75,76,77,78,79,80,81,82,83,85,86,87,88,108,125,138,163,207,219,242,265},{20,47,57,71,75,76,77,78,79,80,81,82,83,84,86,87,88,98,109,126,139,150,164,190,208,235,243,253},{5,21,48,58,72,75,76,77,78,79,80,81,82,83,84,85,87,88,99,110,140,191,209,220,236,254,266},{6,22,49,73,75,76,77,78,79,80,81,82,83,84,85,86,88,100,111,127,151,165,192,210,221,267},{8,34,50,60,75,76,77,78,79,80,81,82,83,84,85,86,87,113,129,141,152,167,179,223,237,244,256,268},{9,23,35,51,61,75,90,91,92,93,94,95,96,97,98,99,100,101,114,130,142,153,168,180,194,224},{1,10,24,76,89,91,92,93,94,95,96,97,98,99,100,101,116,155,170,181},{2,25,37,62,77,89,90,92,93,94,95,96,97,98,99,100,101,117,131,143,196,226,258},{3,12,27,39,65,79,89,90,91,93,94,95,96,97,98,99,100,101,103,119,132,146,158,183,199,229,239},{28,40,53,80,89,90,91,92,94,95,96,97,98,99,100,101,120,133,147,159,173,184,200,260},{13,41,81,89,90,91,92,93,95,96,97,98,99,100,101,160,201,214,230,240,248,261},{14,29,54,66,89,90,91,92,93,94,96,97,98,99,100,101,104,121,134,148,174,215,231},{16,31,67,89,90,91,92,93,94,95,97,98,99,100,101,135,161,186,203,217,232,250},{17,32,43,68,89,90,91,92,93,94,95,96,98,99,100,101,105,122,136,149,175,187,204,262},{20,47,57,71,85,89,90,91,92,93,94,95,96,97,99,100,101,109,126,139,150,164,190,208,235,243,253},{5,21,48,58,72,86,89,90,91,92,93,94,95,96,97,98,100,101,110,140,191,209,220,236,254,266},{6,22,49,73,87,89,90,91,92,93,94,95,96,97,98,99,101,111,127,151,165,192,210,221,267},{7,59,74,89,90,91,92,93,94,95,96,97,98,99,100,112,128,166,178,193,222,255},{11,26,38,64,78,103,104,105,106,107,108,109,110,111,112,113,118,145,157,172,182,198,213,228,247},{3,12,27,39,65,79,92,102,104,105,106,107,108,109,110,111,112,113,119,132,146,158,183,199,229,239},{14,29,54,66,95,102,103,105,106,107,108,109,110,111,112,113,121,134,148,174,215,231},{17,32,43,68,97,102,103,104,106,107,108,109,110,111,112,113,122,136,149,175,187,204,262},{18,44,69,82,102,103,104,105,107,108,109,110,111,112,113,123,162,176,188,205,218,233,251,263},{4,45,56,70,83,102,103,104,105,106,108,109,110,111,112,113,124,137,177,189,206,234,252,264},{19,33,46,84,102,103,104,105,106,107,109,110,111,112,113,125,138,163,207,219,242,265},{20,47,57,71,85,98,102,103,104,105,106,107,108,110,111,112,113,126,139,150,164,190,208,235,243,253},{5,21,48,58,72,86,99,102,103,104,105,106,107,108,109,111,112,113,140,191,209,220,236,254,266},{6,22,49,73,87,100,102,103,104,105,106,107,108,109,110,112,113,127,151,165,192,210,221,267},{7,59,74,101,102,103,104,105,106,107,108,109,110,111,113,128,166,178,193,222,255},{8,34,50,60,88,102,103,104,105,106,107,108,109,110,111,112,129,141,152,167,179,223,237,244,256,268},{9,23,35,51,61,75,89,115,116,117,118,119,120,121,122,123,124,125,126,127,128,129,130,142,153,168,180,194,224},{0,36,52,114,116,117,118,119,120,121,122,123,124,125,126,127,128,129,154,169,195,211,225,245,257},{1,10,24,76,90,114,115,117,118,119,120,121,122,123,124,125,126,127,128,129,155,170,181},{2,25,37,62,77,91,114,115,116,118,119,120,121,122,123,124,125,126,127,128,129,131,143,196,226,258},{11,26,38,64,78,102,114,115,116,117,119,120,121,122,123,124,125,126,127,128,129,145,157,172,182,198,213,228,247},{3,12,27,39,65,79,92,103,114,115,116,117,118,120,121,122,123,124,125,126,127,128,129,132,146,158,183,199,229,239},{28,40,53,80,93,114,115,116,117,118,119,121,122,123,124,125,126,127,128,129,133,147,159,173,184,200,260},{14,29,54,66,95,104,114,115,116,117,118,119,120,122,123,124,125,126,127,128,129,134,148,174,215,231},{17,32,43,68,97,105,114,115,116,117,118,119,120,121,123,124,125,126,127,128,129,136,149,175,187,204,262},{18,44,69,82,106,114,115,116,117,118,119,120,121,122,124,125,126,127,128,129,162,176,188,205,218,233,251,263},{4,45,56,70,83,107,114,115,116,117,118,119,120,121,122,123,125,126,127,128,129,137,177,189,206,234,252,264},{19,33,46,84,108,114,115,116,117,118,119,120,121,122,123,124,126,127,128,129,138,163,207,219,242,265},{20,47,57,71,85,98,109,114,115,116,117,118,119,120,121,122,123,124,125,127,128,129,139,150,164,190,208,235,243,253},{6,22,49,73,87,100,111,114,115,116,117,118,119,120,121,122,123,124,125,126,128,129,151,165,192,210,221,267},{7,59,74,101,112,114,115,116,117,118,119,120,121,122,123,124,125,126,127,129,166,178,193,222,255},{8,34,50,60,88,113,114,115,116,117,118,119,120,121,122,123,124,125,126,127,128,141,152,167,179,223,237,244,256,268},{9,23,35,51,61,75,89,114,131,132,133,134,135,136,137,138,139,140,141,142,153,168,180,194,224},{2,25,37,62,77,91,117,130,132,133,134,135,136,137,138,139,140,141,143,196,226,258},{3,12,27,39,65,79,92,103,119,130,131,133,134,135,136,137,138,139,140,141,146,158,183,199,229,239},{28,40,53,80,93,120,130,131,132,134,135,136,137,138,139,140,141,147,159,173,184,200,260},{14,29,54,66,95,104,121,130,131,132,133,135,136,137,138,139,140,141,148,174,215,231},{16,31,67,96,130,131,132,133,134,136,137,138,139,140,141,161,186,203,217,232,250},{17,32,43,68,97,105,122,130,131,132,133,134,135,137,138,139,140,141,149,175,187,204,262},{4,45,56,70,83,107,124,130,131,132,133,134,135,136,138,139,140,141,177,189,206,234,252,264},{19,33,46,84,108,125,130,131,132,133,134,135,136,137,139,140,141,163,207,219,242,265},{20,47,57,71,85,98,109,126,130,131,132,133,134,135,136,137,138,140,141,150,164,190,208,235,243,253},{5,21,48,58,72,86,99,110,130,131,132,133,134,135,136,137,138,139,141,191,209,220,236,254,266},{8,34,50,60,88,113,129,130,131,132,133,134,135,136,137,138,139,140,152,167,179,223,237,244,256,268},{9,23,35,51,61,75,89,114,130,143,144,145,146,147,148,149,150,151,152,153,168,180,194,224},{2,25,37,62,77,91,117,131,142,144,145,146,147,148,149,150,151,152,196,226,258},{63,142,143,145,146,147,148,149,150,151,152,156,171,197,212,227,238,246,259},{11,26,38,64,78,102,118,142,143,144,146,147,148,149,150,151,152,157,172,182,198,213,228,247},{3,12,27,39,65,79,92,103,119,132,142,143,144,145,147,148,149,150,151,152,158,183,199,229,239},{28,40,53,80,93,120,133,142,143,144,145,146,148,149,150,151,152,159,173,184,200,260},{14,29,54,66,95,104,121,134,142,143,144,145,146,147,149,150,151,152,174,215,231},{17,32,43,68,97,105,122,136,142,143,144,145,146,147,148,150,151,152,175,187,204,262},{20,47,57,71,85,98,109,126,139,142,143,144,145,146,147,148,149,151,152,164,190,208,235,243,253},{6,22,49,73,87,100,111,127,142,143,144,145,146,147,148,149,150,152,165,192,210,221,267},{8,34,50,60,88,113,129,141,142,143,144,145,146,147,148,149,150,151,167,179,223,237,244,256,268},{9,23,35,51,61,75,89,114,130,142,154,155,156,157,158,159,160,161,162,163,164,165,166,167,168,180,194,224},{0,36,52,115,153,155,156,157,158,159,160,161,162,163,164,165,166,167,169,195,211,225,245,257},{1,10,24,76,90,116,153,154,156,157,158,159,160,161,162,163,164,165,166,167,170,181},{63,144,153,154,155,157,158,159,160,161,162,163,164,165,166,167,171,197,212,227,238,246,259},{11,26,38,64,78,102,118,145,153,154,155,156,158,159,160,161,162,163,164,165,166,167,172,182,198,213,228,247},{3,12,27,39,65,79,92,103,119,132,146,153,154,155,156,157,159,160,161,162,163,164,165,166,167,183,199,229,239},{28,40,53,80,93,120,133,147,153,154,155,156,157,158,160,161,162,163,164,165,166,167,173,184,200,260},{13,41,81,94,153,154,155,156,157,158,159,161,162,163,164,165,166,167,201,214,230,240,248,261},{16,31,67,96,135,153,154,155,156,157,158,159,160,162,163,164,165,166,167,186,203,217,232,250},{18,44,69,82,106,123,153,154,155,156,157,158,159,160,161,163,164,165,166,167,176,188,205,218,233,251,263},{19,33,46,84,108,125,138,153,154,155,156,157,158,159,160,161,162,164,165,166,167,207,219,242,265},{20,47,57,71,85,98,109,126,139,150,153,154,155,156,157,158,159,160,161,162,163,165,166,167,190,208,235,243,253},{6,22,49,73,87,100,111,127,151,153,154,155,156,157,158,159,160,161,162,163,164,166,167,192,210,221,267},{7,59,74,101,112,128,153,154,155,156,157,158,159,160,161,162,163,164,165,167,178,193,222,255},{8,34,50,60,88,113,129,141,152,153,154,155,156,157,158,159,160,161,162,163,164,165,166,179,223,237,244,256,268},{9,23,35,51,61,75,89,114,130,142,153,169,170,171,172,173,174,175,176,177,178,179,180,194,224},{0,36,52,115,154,168,170,171,172,173,174,175,176,177,178,179,195,211,225,245,257},{1,10,24,76,90,116,155,168,169,171,172,173,174,175,176,177,178,179,181},{63,144,156,168,169,170,172,173,174,175,176,177,178,179,197,212,227,238,246,259},{11,26,38,64,78,102,118,145,157,168,169,170,171,173,174,175,176,177,178,179,182,198,213,228,247},{28,40,53,80,93,120,133,147,159,168,169,170,171,172,174,175,176,177,178,179,184,200,260},{14,29,54,66,95,104,121,134,148,168,169,170,171,172,173,175,176,177,178,179,215,231},{17,32,43,68,97,105,122,136,149,168,169,170,171,172,173,174,176,177,178,179,187,204,262},{18,44,69,82,106,123,162,168,169,170,171,172,173,174,175,177,178,179,188,205,218,233,251,263},{4,45,56,70,83,107,124,137,168,169,170,171,172,173,174,175,176,178,179,189,206,234,252,264},{7,59,74,101,112,128,166,168,169,170,171,172,173,174,175,176,177,179,193,222,255},{8,34,50,60,88,113,129,141,152,167,168,169,170,171,172,173,174,175,176,177,178,223,237,244,256,268},{9,23,35,51,61,75,89,114,130,142,153,168,181,182,183,184,185,186,187,188,189,190,191,192,193,194,224},{1,10,24,76,90,116,155,170,180,182,183,184,185,186,187,188,189,190,191,192,193},{11,26,38,64,78,102,118,145,157,172,180,181,183,184,185,186,187,188,189,190,191,192,193,198,213,228,247},{3,12,27,39,65,79,92,103,119,132,146,158,180,181,182,184,185,186,187,188,189,190,191,192,193,199,229,239},{28,40,53,80,93,120,133,147,159,173,180,181,182,183,185,186,187,188,189,190,191,192,193,200,260},{15,30,42,55,180,181,182,183,184,186,187,188,189,190,191,192,193,202,216,241,249},{16,31,67,96,135,161,180,181,182,183,184,185,187,188,189,190,191,192,193,203,217,232,250},{17,32,43,68,97,105,122,136,149,175,180,181,182,183,184,185,186,188,189,190,191,192,193,204,262},{18,44,69,82,106,123,162,176,180,181,182,183,184,185,186,187,189,190,191,192,193,205,218,233,251,263},{4,45,56,70,83,107,124,137,177,180,181,182,183,184,185,186,187,188,190,191,192,193,206,234,252,264},{20,47,57,71,85,98,109,126,139,150,164,180,181,182,183,184,185,186,187,188,189,191,192,193,208,235,243,253},{5,21,48,58,72,86,99,110,140,180,181,182,183,184,185,186,187,188,189,190,192,193,209,220,236,254,266},{6,22,49,73,87,100,111,127,151,165,180,181,182,183,184,185,186,187,188,189,190,191,193,210,221,267},{7,59,74,101,112,128,166,178,180,181,182,183,184,185,186,187,188,189,190,191,192,222,255},{9,23,35,51,61,75,89,114,130,142,153,168,180,195,196,197,198,199,200,201,202,203,204,205,206,207,208,209,210,224},{0,36,52,115,154,169,194,196,197,198,199,200,201,202,203,204,205,206,207,208,209,210,211,225,245,257},{2,25,37,62,77,91,117,131,143,194,195,197,198,199,200,201,202,203,204,205,206,207,208,209,210,226,258},{63,144,156,171,194,195,196,198,199,200,201,202,203,204,205,206,207,208,209,210,212,227,238,246,259},{11,26,38,64,78,102,118,145,157,172,182,194,195,196,197,199,200,201,202,203,204,205,206,207,208,209,210,213,228,247},{3,12,27,39,65,79,92,103,119,132,146,158,183,194,195,196,197,198,200,201,202,203,204,205,206,207,208,209,210,229,239},{28,40,53,80,93,120,133,147,159,173,184,194,195,196,197,198,199,201,202,203,204,205,206,207,208,209,210,260},{13,41,81,94,160,194,195,196,197,198,199,200,202,203,204,205,206,207,208,209,210,214,230,240,248,261},{15,30,42,55,185,194,195,196,197,198,199,200,201,203,204,205,206,207,208,209,210,216,241,249},{16,31,67,96,135,161,186,194,195,196,197,198,199,200,201,202,204,205,206,207,208,209,210,217,232,250},{17,32,43,68,97,105,122,136,149,175,187,194,195,196,197,198,199,200,201,202,203,205,206,207,208,209,210,262},{18,44,69,82,106,123,162,176,188,194,195,196,197,198,199,200,201,202,203,204,206,207,208,209,210,218,233,251,263},{4,45,56,70,83,107,124,137,177,189,194,195,196,197,198,199,200,201,202,203,204,205,207,208,209,210,234,252,264},{19,33,46,84,108,125,138,163,194,195,196,197,198,199,200,201,202,203,204,205,206,208,209,210,219,242,265},{20,47,57,71,85,98,109,126,139,150,164,190,194,195,196,197,198,199,200,201,202,203,204,205,206,207,209,210,235,243,253},{5,21,48,58,72,86,99,110,140,191,194,195,196,197,198,199,200,201,202,203,204,205,206,207,208,210,220,236,254,266},{6,22,49,73,87,100,111,127,151,165,192,194,195,196,197,198,199,200,201,202,203,204,205,206,207,208,209,221,267},{0,36,52,115,154,169,195,212,213,214,215,216,217,218,219,220,221,222,223,225,245,257},{63,144,156,171,197,211,213,214,215,216,217,218,219,220,221,222,223,227,238,246,259},{11,26,38,64,78,102,118,145,157,172,182,198,211,212,214,215,216,217,218,219,220,221,222,223,228,247},{13,41,81,94,160,201,211,212,213,215,216,217,218,219,220,221,222,223,230,240,248,261},{14,29,54,66,95,104,121,134,148,174,211,212,213,214,216,217,218,219,220,221,222,223,231},{15,30,42,55,185,202,211,212,213,214,215,217,218,219,220,221,222,223,241,249},{16,31,67,96,135,161,186,203,211,212,213,214,215,216,218,219,220,221,222,223,232,250},{18,44,69,82,106,123,162,176,188,205,211,212,213,214,215,216,217,219,220,221,222,223,233,251,263},{19,33,46,84,108,125,138,163,207,211,212,213,214,215,216,217,218,220,221,222,223,242,265},{5,21,48,58,72,86,99,110,140,191,209,211,212,213,214,215,216,217,218,219,221,222,223,236,254,266},{6,22,49,73,87,100,111,127,151,165,192,210,211,212,213,214,215,216,217,218,219,220,222,223,267},{7,59,74,101,112,128,166,178,193,211,212,213,214,215,216,217,218,219,220,221,223,255},{8,34,50,60,88,113,129,141,152,167,179,211,212,213,214,215,216,217,218,219,220,221,222,237,244,256,268},{9,23,35,51,61,75,89,114,130,142,153,168,180,194,225,226,227,228,229,230,231,232,233,234,235,236,237},{0,36,52,115,154,169,195,211,224,226,227,228,229,230,231,232,233,234,235,236,237,245,257},{2,25,37,62,77,91,117,131,143,196,224,225,227,228,229,230,231,232,233,234,235,236,237,258},{63,144,156,171,197,212,224,225,226,228,229,230,231,232,233,234,235,236,237,238,246,259},{11,26,38,64,78,102,118,145,157,172,182,198,213,224,225,226,227,229,230,231,232,233,234,235,236,237,247},{3,12,27,39,65,79,92,103,119,132,146,158,183,199,224,225,226,227,228,230,231,232,233,234,235,236,237,239},{13,41,81,94,160,201,214,224,225,226,227,228,229,231,232,233,234,235,236,237,240,248,261},{14,29,54,66,95,104,121,134,148,174,215,224,225,226,227,228,229,230,232,233,234,235,236,237},{16,31,67,96,135,161,186,203,217,224,225,226,227,228,229,230,231,233,234,235,236,237,250},{18,44,69,82,106,123,162,176,188,205,218,224,225,226,227,228,229,230,231,232,234,235,236,237,251,263},{4,45,56,70,83,107,124,137,177,189,206,224,225,226,227,228,229,230,231,232,233,235,236,237,252,264},{20,47,57,71,85,98,109,126,139,150,164,190,208,224,225,226,227,228,229,230,231,232,233,234,236,237,243,253},{5,21,48,58,72,86,99,110,140,191,209,220,224,225,226,227,228,229,230,231,232,233,234,235,237,254,266},{8,34,50,60,88,113,129,141,152,167,179,223,224,225,226,227,228,229,230,231,232,233,234,235,236,244,256,268},{63,144,156,171,197,212,227,239,240,241,242,243,244,246,259},{3,12,27,39,65,79,92,103,119,132,146,158,183,199,229,238,240,241,242,243,244},{13,41,81,94,160,201,214,230,238,239,241,242,243,244,248,261},{15,30,42,55,185,202,216,238,239,240,242,243,244,249},{19,33,46,84,108,125,138,163,207,219,238,239,240,241,243,244,265},{20,47,57,71,85,98,109,126,139,150,164,190,208,235,238,239,240,241,242,244,253},{8,34,50,60,88,113,129,141,152,167,179,223,237,238,239,240,241,242,243,256,268},{0,36,52,115,154,169,195,211,225,246,247,248,249,250,251,252,253,254,255,256,257},{63,144,156,171,197,212,227,238,245,247,248,249,250,251,252,253,254,255,256,259},{11,26,38,64,78,102,118,145,157,172,182,198,213,228,245,246,248,249,250,251,252,253,254,255,256},{13,41,81,94,160,201,214,230,240,245,246,247,249,250,251,252,253,254,255,256,261},{15,30,42,55,185,202,216,241,245,246,247,248,250,251,252,253,254,255,256},{16,31,67,96,135,161,186,203,217,232,245,246,247,248,249,251,252,253,254,255,256},{18,44,69,82,106,123,162,176,188,205,218,233,245,246,247,248,249,250,252,253,254,255,256,263},{4,45,56,70,83,107,124,137,177,189,206,234,245,246,247,248,249,250,251,253,254,255,256,264},{20,47,57,71,85,98,109,126,139,150,164,190,208,235,243,245,246,247,248,249,250,251,252,254,255,256},{5,21,48,58,72,86,99,110,140,191,209,220,236,245,246,247,248,249,250,251,252,253,255,256,266},{7,59,74,101,112,128,166,178,193,222,245,246,247,248,249,250,251,252,253,254,256},{8,34,50,60,88,113,129,141,152,167,179,223,237,244,245,246,247,248,249,250,251,252,253,254,255,268},{0,36,52,115,154,169,195,211,225,245,258,259,260,261,262,263,264,265,266,267,268},{2,25,37,62,77,91,117,131,143,196,226,257,259,260,261,262,263,264,265,266,267,268},{63,144,156,171,197,212,227,238,246,257,258,260,261,262,263,264,265,266,267,268},{28,40,53,80,93,120,133,147,159,173,184,200,257,258,259,261,262,263,264,265,266,267,268},{13,41,81,94,160,201,214,230,240,248,257,258,259,260,262,263,264,265,266,267,268},{17,32,43,68,97,105,122,136,149,175,187,204,257,258,259,260,261,263,264,265,266,267,268},{18,44,69,82,106,123,162,176,188,205,218,233,251,257,258,259,260,261,262,264,265,266,267,268},{4,45,56,70,83,107,124,137,177,189,206,234,252,257,258,259,260,261,262,263,265,266,267,268},{19,33,46,84,108,125,138,163,207,219,242,257,258,259,260,261,262,263,264,266,267,268},{5,21,48,58,72,86,99,110,140,191,209,220,236,254,257,258,259,260,261,262,263,264,265,267,268},{6,22,49,73,87,100,111,127,151,165,192,210,221,257,258,259,260,261,262,263,264,265,266,268},{8,34,50,60,88,113,129,141,152,167,179,223,237,244,256,257,258,259,260,261,262,263,264,265,266,267}];
weights=[455,245,503,589,541,553,530,318,520,679,414,209,313,652,455,220,423,237,244,376,446,228,403,298,446,313,581,317,357,334,533,312,608,558,276,234,593,324,554,499,274,670,276,513,318,575,547,255,213,488,575,623,321,250,206,501,635,279,557,450,618,526,575,667,637,375,617,457,417,235,588,431,547,282,561,241,375,287,373,272,341,597,292,669,211,303,384,202,405,412,526,399,271,434,339,593,491,701,263,527,380,483,350,283,370,277,536,531,447,522,437,212,209,471,293,255,640,491,587,681,615,693,556,408,237,342,498,305,561,609,323,652,637,535,682,332,538,531,457,549,319,546,590,228,348,412,665,653,628,317,696,300,517,229,285,386,346,529,489,410,662,663,509,508,326,506,402,622,611,254,678,265,297,323,579,210,320,632,370,356,464,566,325,303,394,530,611,640,607,490,347,348,291,641,512,349,221,462,414,562,525,615,345,456,687,606,209,245,523,586,458,296,289,510,496,415,626,252,245,250,507,384,223,488,657,436,344,308,425,703,568,548,217,563,246,522,401,533,335,465,216,503,242,502,549,473,305,213,395,616,544,606,299,293,258,350,317,313,289,477,368,229,259,249,439,274,247,462,417];
